NAME : portcgen-17-23
COMMENT : portcgen N=17, seed=23
TYPE : TSP
DIMENSION : 17
EDGE_WEIGHT_TYPE : EUC_2D
NODE_COORD_SECTION
1 151158 -35309
2 62727 55237
3 -87071 94773
4 253504 13748
5 400490 56118
6 289993 324252
7 507865 -276439
8 -128060 -36224
9 417969 -110498
10 86647 -176926
11 91447 13949
12 94526 -3797
13 -350401 -292966
14 -167617 -96820
15 -24918 -110597
16 8036 -275844
17 -323274 -152314
